param NUMSCEN := 100;

param prob := 0.01;

param pI := 3;

param pT := 4;

param pT_ex := 50;

param pd := 5;

param pR := 6;

param randSeed := 0;



param ps := 1 3.0 2 3.0 3 3.0 ;

param pKesi := 1 0 2 0 3 0 ;

param pCCR := 1 14.4 2 11.4 3 9.1 ;

param pCPR := 1 1 2 1 3 1 ;

param w_shape := 1 6.5 2 6.7 3 5.4 ;

param w_scale := 1 6.9 2 5.0 3 7.3 ;

